Solving original (integer) problem with strategy gdp.hull_exact...
--- Job model.gms Start 02/15/26 05:27:40 52.2.0 d8e408be LEX-LEG x86 64bit/Linux
--- Applying:
    /package/gams/52.2/gmsprmun.txt
--- GAMS Parameters defined
    Input /local/scratch/a/sgusev/repos/k_means/data/gams_gurobi_gdp.hull_exact/no_mode/2026-02-15_05-27-39/original/model.gms
    Output /local/scratch/a/sgusev/repos/k_means/data/gams_gurobi_gdp.hull_exact/no_mode/2026-02-15_05-27-39/original/output.lst
    ScrDir /local/scratch/a/sgusev/repos/k_means/data/gams_gurobi_gdp.hull_exact/no_mode/2026-02-15_05-27-39/original/225a/
    SysDir /package/gams/52.2/
    CurDir /local/scratch/a/sgusev/repos/k_means/data/gams_gurobi_gdp.hull_exact/no_mode/2026-02-15_05-27-39/original/
    LogOption 3
    AppendLog 1
Licensee: David Bernal / SECQUOIA Research Group         G251008+0003Ac-GEN
          Purdue University, Davidson School of Chemical EngineeringDCE4838
          225a/gamslice.dat
          5a82958a-fbca-4a23
          node:66820903 mem:995 cores:48 ipport:45889 v:2                  
          Evaluation license: Not for commercial or production use
          The time-limited license stops working on : Jun 30, 2027
System information: 48 physical cores and 995 Gb physical memory detected
GAMS 52.2.0   Copyright (C) 1987-2025 GAMS Development. All rights reserved
--- Starting compilation
--- model.gms(4861) 2 Mb
--- $echo File /local/scratch/a/sgusev/repos/k_means/data/gams_gurobi_gdp.hull_exact/no_mode/2026-02-15_05-27-39/original/gurobi.opt
--- model.gms(7124) 2 Mb
--- Starting execution: elapsed 0:00:00.024
--- model.gms(4870) 3 Mb
--- Generating MINLP model GAMS_MODEL
--- model.gms(4874) 6 Mb
---   1,484 rows  713 columns  3,613 non-zeroes
---   2,380 nl-code  425 nl-non-zeroes
---   85 discrete-columns
--- Range statistics (absolute non-zero finite values)
--- RHS       [min, max] : [ 1.000E+00, 1.000E+00] - Zero values observed as well
--- Bound     [min, max] : [ 1.000E+00, 1.020E+02] - Zero values observed as well
--- Matrix    [min, max] : [ 1.000E+00, 1.020E+02] - Zero values observed as well
--- model.gms(4874) 4 Mb
--- Executing GUROBI (Solvelink=5): elapsed 0:00:00.032
Reading parameter(s) from "/local/scratch/a/sgusev/repos/k_means/data/gams_gurobi_gdp.hull_exact/no_mode/2026-02-15_05-27-39/original/gurobi.opt"
>>  NonConvex 2
>>  Threads 1
>>  MIPGap 1e-06
>>  MIPGapAbs 1e-10
>>  FeasibilityTol 1e-06
>>  OptimalityTol 1e-06
>>  IntFeasTol 1e-05
Finished reading from "/local/scratch/a/sgusev/repos/k_means/data/gams_gurobi_gdp.hull_exact/no_mode/2026-02-15_05-27-39/original/gurobi.opt"

... GRB_LICENSE_FILE = /local/scratch/a/sgusev/gurobi.lic

    Gurobi           52.2.0 d8e408be Dec 8, 2025           LEG x86 64bit/Linux    

... GAMS/Gurobi Link license.
... GMO Q Extraction (ThreePass): 0.00s

    Gurobi Optimizer version 13.0.0 build v13.0.0rc1 (linux64 - "Oracle Linux Server 9.7")
    
    CPU model: AMD EPYC 7643 48-Core Processor, instruction set [SSE2|AVX|AVX2]
    Thread count: 48 physical cores, 96 logical processors, using up to 1 threads
    
    Non-default parameters:
    TimeLimit  300
    MIPGap  1e-06
    LogToConsole  0
    NonConvex  2
    Threads  1
    
    Optimize a model with 1398 rows, 712 columns and 3170 nonzeros (Min)
    Model fingerprint: 0x45e14cf4
    Model has 17 linear objective coefficients
    Model has 85 quadratic constraints
    Variable types: 627 continuous, 85 integer (0 binary)
    Coefficient statistics:
      Matrix range     [1e+00, 1e+02]
      QMatrix range    [3e-02, 2e+00]
      Objective range  [1e+00, 1e+00]
      Bounds range     [1e+00, 1e+02]
      RHS range        [1e+00, 1e+00]
    Presolve removed 255 rows and 272 columns
    Presolve time: 0.01s
    Presolved: 1783 rows, 1035 columns, 4813 nonzeros
    Presolved model has 255 quadratic constraint(s)
    Variable types: 950 continuous, 85 integer (85 binary)
    
    Root relaxation: objective 0.000000e+00, 424 iterations, 0.00 seconds (0.00 work units)
    
        Nodes    |    Current Node    |     Objective Bounds      |     Work
     Expl Unexpl |  Obj  Depth IntInf | Incumbent    BestBd   Gap | It/Node Time
    
    H    0     0                       9.3080576    0.00000   100%     -    0s
    *    0     0               0       9.3080576    0.00000   100%     -    0s
         0     0    0.00000    0   24    9.30806    0.00000   100%     -    0s
         0     0    0.00000    0   23    9.30806    0.00000   100%     -    0s
         0     0    0.00000    0   26    9.30806    0.00000   100%     -    0s
         0     0    0.00000    0   31    9.30806    0.00000   100%     -    0s
         0     0    0.00000    0   12    9.30806    0.00000   100%     -    0s
         0     0    0.00000    0   22    9.30806    0.00000   100%     -    0s
         0     0    0.00000    0   30    9.30806    0.00000   100%     -    0s
         0     0    0.00000    0   10    9.30806    0.00000   100%     -    0s
         0     0    0.00000    0   28    9.30806    0.00000   100%     -    0s
         0     0    0.00000    0   32    9.30806    0.00000   100%     -    0s
         0     0    0.00000    0   29    9.30806    0.00000   100%     -    0s
         0     0    0.00000    0   30    9.30806    0.00000   100%     -    0s
         0     0    0.00000    0   22    9.30806    0.00000   100%     -    0s
         0     0    0.00000    0   27    9.30806    0.00000   100%     -    0s
         0     0    0.00000    0   12    9.30806    0.00000   100%     -    0s
         0     0    0.00000    0   30    9.30806    0.00000   100%     -    0s
         0     0    0.00000    0   30    9.30806    0.00000   100%     -    0s
         0     0    0.00000    0   29    9.30806    0.00000   100%     -    0s
         0     0    0.00000    0   22    9.30806    0.00000   100%     -    0s
         0     0    0.00000    0   27    9.30806    0.00000   100%     -    0s
         0     0    0.00000    0   18    9.30806    0.00000   100%     -    0s
         0     0    0.00000    0   26    9.30806    0.00000   100%     -    0s
         0     0    0.00000    0   24    9.30806    0.00000   100%     -    0s
         0     0    0.00000    0   26    9.30806    0.00000   100%     -    0s
         0     0    0.00000    0   26    9.30806    0.00000   100%     -    0s
         0     0    0.00000    0   32    9.30806    0.00000   100%     -    0s
         0     0    0.00000    0   24    9.30806    0.00000   100%     -    0s
         0     0    0.00000    0   34    9.30806    0.00000   100%     -    0s
         0     0    0.00000    0   13    9.30806    0.00000   100%     -    0s
         0     0    0.00000    0   27    9.30806    0.00000   100%     -    0s
         0     0    0.00000    0   24    9.30806    0.00000   100%     -    0s
         0     0    0.00000    0   23    9.30806    0.00000   100%     -    0s
         0     0    0.00000    0   23    9.30806    0.00000   100%     -    0s
         0     0    0.00000    0   29    9.30806    0.00000   100%     -    0s
         0     0    0.00000    0   29    9.30806    0.00000   100%     -    0s
         0     0    0.00000    0   31    9.30806    0.00000   100%     -    0s
         0     0    0.00000    0   31    9.30806    0.00000   100%     -    0s
         0     0    0.00000    0   24    9.30806    0.00000   100%     -    0s
         0     0    0.00000    0   23    9.30806    0.00000   100%     -    0s
         0     0    0.00000    0   33    9.30806    0.00000   100%     -    0s
         0     0    0.00000    0   22    9.30806    0.00000   100%     -    0s
         0     0    0.00000    0   29    9.30806    0.00000   100%     -    0s
         0     0    0.00000    0   23    9.30806    0.00000   100%     -    0s
         0     0    0.00000    0   18    9.30806    0.00000   100%     -    0s
         0     0    0.00000    0   15    9.30806    0.00000   100%     -    0s
         0     0    0.00000    0   24    9.30806    0.00000   100%     -    0s
         0     0    0.00000    0   24    9.30806    0.00000   100%     -    0s
         0     0    0.00000    0   26    9.30806    0.00000   100%     -    0s
         0     0    0.00000    0   26    9.30806    0.00000   100%     -    0s
         0     0    0.00000    0   28    9.30806    0.00000   100%     -    0s
         0     0    0.00000    0   27    9.30806    0.00000   100%     -    0s
         0     0    0.00000    0   29    9.30806    0.00000   100%     -    0s
         0     0    0.00000    0   22    9.30806    0.00000   100%     -    0s
         0     0    0.00000    0   26    9.30806    0.00000   100%     -    0s
         0     0    0.00000    0   26    9.30806    0.00000   100%     -    0s
         0     0    0.00000    0   28    9.30806    0.00000   100%     -    0s
         0     0    0.00000    0   27    9.30806    0.00000   100%     -    0s
         0     0    0.00000    0   32    9.30806    0.00000   100%     -    0s
         0     0    0.00000    0   32    9.30806    0.00000   100%     -    0s
         0     0    0.00000    0   32    9.30806    0.00000   100%     -    0s
         0     0    0.00000    0   24    9.30806    0.00000   100%     -    1s
         0     0    0.00000    0   27    9.30806    0.00000   100%     -    1s
         0     0    0.00000    0   27    9.30806    0.00000   100%     -    1s
         0     0    0.00000    0   31    9.30806    0.00000   100%     -    1s
         0     0    0.00000    0   28    9.30806    0.00000   100%     -    1s
         0     0    0.00000    0   31    9.30806    0.00000   100%     -    1s
         0     0    0.00000    0   31    9.30806    0.00000   100%     -    1s
         0     0    0.00000    0   34    9.30806    0.00000   100%     -    1s
         0     0    0.00000    0   24    9.30806    0.00000   100%     -    1s
         0     0    0.00000    0   32    9.30806    0.00000   100%     -    1s
         0     0    0.00000    0   32    9.30806    0.00000   100%     -    1s
         0     0    0.00000    0   29    9.30806    0.00000   100%     -    1s
         0     0    0.00000    0   26    9.30806    0.00000   100%     -    1s
         0     0    0.00000    0   29    9.30806    0.00000   100%     -    1s
         0     0    0.00000    0   23    9.30806    0.00000   100%     -    1s
         0     0    0.00000    0   23    9.30806    0.00000   100%     -    1s
         0     0    0.00000    0   22    9.30806    0.00000   100%     -    1s
         0     0    0.00000    0   27    9.30806    0.00000   100%     -    1s
         0     0    0.00000    0   18    9.30806    0.00000   100%     -    1s
         0     0    0.00000    0   21    9.30806    0.00000   100%     -    1s
         0     0    0.00000    0   21    9.30806    0.00000   100%     -    1s
         0     0    0.00000    0   26    9.30806    0.00000   100%     -    1s
         0     0    0.00000    0   24    9.30806    0.00000   100%     -    1s
         0     0    0.00000    0   24    9.30806    0.00000   100%     -    1s
         0     0    0.00000    0   19    9.30806    0.00000   100%     -    1s
         0     0    0.00000    0   27    9.30806    0.00000   100%     -    1s
         0     0    0.00000    0   27    9.30806    0.00000   100%     -    1s
         0     0    0.00000    0   27    9.30806    0.00000   100%     -    1s
         0     0    0.00000    0   27    9.30806    0.00000   100%     -    1s
         0     0    0.00000    0   26    9.30806    0.00000   100%     -    1s
         0     0    0.00000    0   26    9.30806    0.00000   100%     -    1s
         0     0    0.00000    0   28    9.30806    0.00000   100%     -    1s
         0     0    0.00000    0   21    9.30806    0.00000   100%     -    1s
         0     0    0.00000    0   25    9.30806    0.00000   100%     -    1s
         0     0    0.00000    0   22    9.30806    0.00000   100%     -    1s
         0     0    0.00000    0   25    9.30806    0.00000   100%     -    1s
         0     0    0.00000    0   24    9.30806    0.00000   100%     -    1s
         0     0    0.00000    0   31    9.30806    0.00000   100%     -    1s
         0     0    0.00000    0   28    9.30806    0.00000   100%     -    1s
         0     0    0.00000    0   30    9.30806    0.00000   100%     -    1s
         0     0    0.00000    0   30    9.30806    0.00000   100%     -    1s
         0     0    0.00000    0   28    9.30806    0.00000   100%     -    1s
         0     0    0.00000    0   26    9.30806    0.00000   100%     -    1s
         0     0    0.00000    0   31    9.30806    0.00000   100%     -    1s
         0     0    0.00000    0   27    9.30806    0.00000   100%     -    1s
         0     0    0.00000    0   31    9.30806    0.00000   100%     -    1s
         0     0    0.00000    0   23    9.30806    0.00000   100%     -    1s
         0     0    0.00000    0   24    9.30806    0.00000   100%     -    1s
         0     0    0.00000    0   24    9.30806    0.00000   100%     -    1s
         0     0    0.00000    0   29    9.30806    0.00000   100%     -    1s
         0     0    0.00000    0   26    9.30806    0.00000   100%     -    1s
         0     0    0.00000    0   27    9.30806    0.00000   100%     -    1s
         0     0    0.00000    0   23    9.30806    0.00000   100%     -    1s
         0     0    0.00000    0   30    9.30806    0.00000   100%     -    1s
         0     0    0.00000    0   25    9.30806    0.00000   100%     -    1s
         0     0    0.00000    0   20    9.30806    0.00000   100%     -    1s
         0     0    0.00000    0   20    9.30806    0.00000   100%     -    1s
         0     0    0.00000    0   24    9.30806    0.00000   100%     -    1s
         0     0    0.00000    0   14    9.30806    0.00000   100%     -    1s
         0     0    0.00000    0   28    9.30806    0.00000   100%     -    1s
         0     0    0.00000    0   28    9.30806    0.00000   100%     -    1s
         0     0    0.00000    0   30    9.30806    0.00000   100%     -    1s
         0     0    0.00000    0   22    9.30806    0.00000   100%     -    1s
         0     0    0.00000    0   19    9.30806    0.00000   100%     -    1s
         0     0    0.00000    0   13    9.30806    0.00000   100%     -    1s
         0     0    0.00000    0   24    9.30806    0.00000   100%     -    1s
         0     0    0.00000    0   24    9.30806    0.00000   100%     -    1s
         0     0    0.00000    0   24    9.30806    0.00000   100%     -    1s
         0     0    0.00000    0   22    9.30806    0.00000   100%     -    1s
         0     0    0.00000    0   30    9.30806    0.00000   100%     -    1s
         0     0    0.00000    0   29    9.30806    0.00000   100%     -    1s
         0     0    0.00000    0   31    9.30806    0.00000   100%     -    2s
         0     0    0.00000    0   29    9.30806    0.00000   100%     -    2s
         0     0    0.00000    0   28    9.30806    0.00000   100%     -    2s
         0     0    0.00000    0   28    9.30806    0.00000   100%     -    2s
         0     0    0.00000    0   31    9.30806    0.00000   100%     -    2s
         0     0    0.00000    0   26    9.30806    0.00000   100%     -    2s
         0     0    0.00000    0   30    9.30806    0.00000   100%     -    2s
         0     0    0.00000    0   30    9.30806    0.00000   100%     -    2s
         0     0    0.00000    0   30    9.30806    0.00000   100%     -    2s
         0     0    0.00000    0   26    9.30806    0.00000   100%     -    2s
         0     0    0.00000    0   31    9.30806    0.00000   100%     -    2s
         0     0    0.00000    0   22    9.30806    0.00000   100%     -    2s
         0     0    0.00000    0   27    9.30806    0.00000   100%     -    2s
         0     0    0.00000    0   24    9.30806    0.00000   100%     -    2s
         0     0    0.00000    0   28    9.30806    0.00000   100%     -    2s
         0     0    0.00000    0   27    9.30806    0.00000   100%     -    2s
         0     0    0.00000    0   24    9.30806    0.00000   100%     -    2s
         0     0    0.00000    0   22    9.30806    0.00000   100%     -    2s
         0     0    0.00000    0   30    9.30806    0.00000   100%     -    2s
         0     0    0.00000    0   26    9.30806    0.00000   100%     -    2s
         0     0    0.00000    0   28    9.30806    0.00000   100%     -    2s
         0     0    0.00000    0   26    9.30806    0.00000   100%     -    2s
         0     0    0.00000    0   22    9.30806    0.00000   100%     -    2s
         0     0    0.00000    0   22    9.30806    0.00000   100%     -    2s
         0     0    0.00000    0   24    9.30806    0.00000   100%     -    2s
         0     0    0.00000    0   24    9.30806    0.00000   100%     -    2s
         0     0    0.00000    0   26    9.30806    0.00000   100%     -    2s
         0     0    0.00000    0   26    9.30806    0.00000   100%     -    2s
         0     0    0.00000    0   26    9.30806    0.00000   100%     -    2s
         0     0    0.00000    0   26    9.30806    0.00000   100%     -    2s
         0     0    0.00000    0   26    9.30806    0.00000   100%     -    2s
         0     0    0.00000    0   22    9.30806    0.00000   100%     -    2s
         0     0    0.00000    0   24    9.30806    0.00000   100%     -    2s
         0     0    0.00000    0   24    9.30806    0.00000   100%     -    2s
         0     0    0.00000    0   24    9.30806    0.00000   100%     -    2s
         0     0    0.00000    0   24    9.30806    0.00000   100%     -    2s
         0     0    0.00000    0   26    9.30806    0.00000   100%     -    2s
         0     0    0.00000    0   26    9.30806    0.00000   100%     -    2s
         0     0    0.00000    0   22    9.30806    0.00000   100%     -    2s
         0     0    0.00000    0   20    9.30806    0.00000   100%     -    2s
         0     0    0.00000    0   28    9.30806    0.00000   100%     -    2s
         0     0    0.00000    0   28    9.30806    0.00000   100%     -    2s
         0     0    0.00000    0   24    9.30806    0.00000   100%     -    2s
         0     0    0.00000    0   24    9.30806    0.00000   100%     -    2s
         0     0    0.00000    0   20    9.30806    0.00000   100%     -    2s
         0     0    0.00000    0   20    9.30806    0.00000   100%     -    2s
         0     0    0.00000    0   24    9.30806    0.00000   100%     -    2s
         0     0    0.00000    0   24    9.30806    0.00000   100%     -    2s
         0     0    0.00000    0   24    9.30806    0.00000   100%     -    2s
         0     0    0.00000    0   24    9.30806    0.00000   100%     -    2s
         0     0    0.00000    0   28    9.30806    0.00000   100%     -    2s
         0     0    0.00000    0   26    9.30806    0.00000   100%     -    2s
         0     0    0.00000    0   31    9.30806    0.00000   100%     -    2s
         0     0    0.00000    0   22    9.30806    0.00000   100%     -    2s
         0     0    0.00000    0   30    9.30806    0.00000   100%     -    2s
         0     0    0.00000    0   26    9.30806    0.00000   100%     -    2s
         0     0    0.00000    0   28    9.30806    0.00000   100%     -    2s
         0     0    0.00000    0   28    9.30806    0.00000   100%     -    2s
         0     0    0.00000    0   28    9.30806    0.00000   100%     -    2s
         0     0    0.00000    0   26    9.30806    0.00000   100%     -    2s
         0     0    0.00000    0   27    9.30806    0.00000   100%     -    2s
         0     0    0.00000    0   27    9.30806    0.00000   100%     -    2s
         0     0    0.00000    0   31    9.30806    0.00000   100%     -    2s
         0     0    0.00000    0   25    9.30806    0.00000   100%     -    2s
         0     0    0.00000    0   32    9.30806    0.00000   100%     -    2s
         0     0    0.00000    0   24    9.30806    0.00000   100%     -    2s
         0     0    0.00000    0   28    9.30806    0.00000   100%     -    2s
         0     0    0.00000    0   28    9.30806    0.00000   100%     -    2s
         0     0    0.00000    0   32    9.30806    0.00000   100%     -    2s
         0     0    0.00000    0   32    9.30806    0.00000   100%     -    2s
         0     0    0.00000    0   32    9.30806    0.00000   100%     -    3s
         0     0    0.00000    0   31    9.30806    0.00000   100%     -    3s
    H    0     0                       8.3247005    0.00000   100%     -    3s
    H    0     0                       8.2733548    0.00000   100%     -    3s
    H    0     0                       8.2044940    0.00000   100%     -    3s
         0     2    0.00000    0   29    8.20449    0.00000   100%     -    3s
    H   30    30                       8.2044938    0.00000   100%   177    3s
    H   53    53                       8.0558276    0.00000   100%   124    3s
    H   53    53                       7.5258408    0.00000   100%   124    3s
    H   77    69                       7.5258407    0.00000   100%  96.3    3s
    H   77    69                       7.5148948    0.00000   100%  96.3    3s
    H   82    69                       7.0810813    0.00000   100%   105    3s
    H   94    81                       7.0810812    0.00000   100%   111    3s
    H   94    81                       7.0810807    0.00000   100%   111    3s
    H  112    99                       7.0810807    0.00000   100%   105    3s
    H  112    99                       6.8711907    0.00000   100%   105    3s
    H  131   116                       6.7126294    0.00000   100%  94.5    3s
    H  131   116                       6.6860321    0.00000   100%  94.5    3s
    H  131   116                       6.6860319    0.00000   100%  94.5    3s
    H  149   118                       6.6860319    0.00000   100%  88.1    3s
    H  149   118                       6.6830675    0.00000   100%  88.1    3s
    H  158   108                       5.9637367    0.00000   100%  90.9    3s
    H  166   116                       5.9637359    0.00000   100%  90.1    3s
    H  175   124                       5.9637359    0.00000   100%  90.0    3s
    H  196   135                       5.9637357    0.00000   100%  83.1    3s
    H  208   143                       5.9637356    0.00000   100%  91.7    3s
    H  219   133                       4.6641122    0.00000   100%  93.5    4s
    H  241   143                       4.6311209    0.00000   100%  90.8    4s
    H  243   145                       4.5749102    0.00000   100%  95.8    4s
    H  245   147                       4.5723954    0.00000   100%  97.9    4s
    H  245   147                       4.5716850    0.00000   100%  97.9    4s
    H  296   184                       4.5716828    0.00000   100%   106    4s
       301   189    1.90709   22   35    4.57168    0.00000   100%   105    5s
    H  340   203                       4.5666110    0.00000   100%  92.8    7s
    H  342   193                       4.5097840    0.00000   100%   185    8s
    H  342   183                       4.5097829    0.00000   100%   185    8s
    H  343   174                       4.5097825    0.00000   100%   185    8s
    H  343   165                       4.4644534    0.00000   100%   185    8s
    H  344   157                       4.4644533    0.00000   100%   185    8s
    H  345   148                       4.2720723    0.00000   100%   186    8s
    H  346   141                       4.2720722    0.00000   100%   186    8s
    H  346   133                       4.2296148    0.00000   100%   186    8s
    H  347   127                       4.1747443    0.00000   100%   186    8s
    H  348   120                       4.1747439    0.00000   100%   187    8s
    H  350   116                       4.1700389    0.00000   100%   188    8s
    H  353   112                       4.1700382    0.00000   100%   189    8s
    H  353   106                       4.1700367    0.00000   100%   189    8s
    H  357   102                       4.1700366    0.00000   100%   191    8s
    H  357    97                       4.1700364    0.00000   100%   191    8s
    H  358    93                       4.1700364    0.00000   100%   192    8s
       385   113    0.79819   36   33    4.17004    0.00000   100%   200   10s
    H  412   112                       4.1700364    0.00000   100%   198   10s
    H  418   111                       4.1700363    0.00000   100%   200   10s
    H  428   114                       4.1700362    0.00000   100%   202   11s
    H  434   114                       4.1700362    0.00000   100%   203   11s
    H  490   124                       4.1700362    0.00000   100%   192   11s
    H  562   173                       4.1700362    0.00000   100%   195   11s
    H  570   181                       4.1700362    0.00000   100%   198   11s
    H 1002   513                       4.1700362    0.00000   100%   204   14s
    H 1011   522                       4.1700362    0.00000   100%   205   14s
      1057   554    2.14526   30   40    4.17004    0.00000   100%   206   15s
    H 1310   736                       4.1700360    0.00000   100%   202   16s
    H 1371   767                       3.9017205    0.00000   100%   198   16s
    H 1413   787                       3.9017203    0.00000   100%   201   17s
    H 1413   787                       3.9017202    0.00000   100%   201   17s
    H 1554   877                       3.9017201    0.00000   100%   204   18s
    H 1564   887                       3.9017201    0.00000   100%   206   18s
    H 1602   841                       3.5501486    0.00000   100%   211   18s
    H 1619   814                       3.4126278    0.00000   100%   212   18s
    H 1627   813                       3.4105571    0.00000   100%   211   18s
    H 1637   823                       3.4105571    0.00000   100%   212   18s
    H 1655   829                       3.4105565    0.00000   100%   213   18s
    H 1675   837                       3.4105565    0.00000   100%   213   19s
    H 1675   829                       3.3659722    0.00000   100%   213   19s
    H 1736   848                       3.3388546    0.00000   100%   215   19s
      1769   871    1.73259   33   35    3.33885    0.00000   100%   217   20s
    H 1784   844                       3.2226657    0.00000   100%   217   20s
    H 1852   879                       3.2226651    0.00000   100%   219   20s
    H 1866   893                       3.2226648    0.00000   100%   222   20s
    H 1956   939                       3.2226645    0.00000   100%   224   21s
    H 1956   939                       3.2226644    0.00000   100%   224   21s
    H 1993   962                       3.2226643    0.00000   100%   225   21s
    H 1993   962                       3.2226642    0.00000   100%   225   21s
    H 2025   980                       3.2226642    0.00000   100%   227   22s
      2319  1148    1.68475   30   33    3.22266    0.00000   100%   238   25s
    H 2415  1163                       3.1435200    0.00000   100%   241   25s
    H 2416  1164                       3.1435181    0.00000   100%   241   25s
    H 2416  1164                       3.1435176    0.00000   100%   241   25s
    H 2526  1220                       3.1435175    0.00000   100%   242   26s
    H 2643  1303                       3.1435175    0.00000   100%   245   28s
      2888  1435    2.08779   38   38    3.14352    0.00000   100%   246   30s
      3433  1749    0.00000   24   48    3.14352    0.00000   100%   254   35s
    H 3821  1982                       3.1435175    0.00389   100%   252   37s
    H 3907  2002                       3.1435175    0.00541   100%   250   38s
    H 4064  2092                       3.1435175    0.00948   100%   250   39s
    H 4095  2102                       3.1435175    0.01045   100%   250   39s
      4108  2117    2.80321   27   40    3.14352    0.01045   100%   251   40s
    H 4124  2113                       3.1435175    0.01045   100%   251   40s
      4821  2447    1.04977   22   50    3.14352    0.03394  98.9%   248   45s
      5771  2920    2.33449   37   35    3.14352    0.06633  97.9%   242   50s
      6717  3310    0.69554   33   42    3.14352    0.11504  96.3%   239   55s
      7627  3687    2.47270   31   41    3.14352    0.17506  94.4%   238   60s
      8540  4040    2.82675   29   31    3.14352    0.23618  92.5%   238   65s
      9461  4385    2.02663   35   46    3.14352    0.29751  90.5%   237   70s
     10492  4794    2.60664   35   36    3.14352    0.35742  88.6%   234   75s
     11549  5194    3.13463   41   32    3.14352    0.41237  86.9%   231   80s
     12769  5678    1.07701   26   39    3.14352    0.47342  84.9%   226   85s
     13782  6066    1.81009   35   45    3.14352    0.51340  83.7%   225   90s
     14828  6423    2.70381   25   32    3.14352    0.55675  82.3%   223   95s
     15975  6764    2.91344   36   24    3.14352    0.61390  80.5%   220  100s
     16927  7035    1.89510   35   33    3.14352    0.66401  78.9%   219  105s
     17860  7354    1.83942   26   44    3.14352    0.70072  77.7%   217  110s
     18725  7695    1.08600   21   50    3.14352    0.71058  77.4%   218  115s
     19665  7990    3.00975   38   39    3.14352    0.73248  76.7%   218  120s
     20720  8288    2.89437   39   27    3.14352    0.76335  75.7%   217  125s
     21717  8607    2.80257   44   23    3.14352    0.78361  75.1%   216  130s
     22871  8978    1.83707   32   39    3.14352    0.80371  74.4%   214  135s
     23930  9317    1.74000   35   44    3.14352    0.83209  73.5%   213  140s
     25030  9681    3.11018   41   22    3.14352    0.85745  72.7%   212  145s
     25984  9918    2.05493   34   39    3.14352    0.88227  71.9%   212  150s
     27223 10246    1.87943   37   37    3.14352    0.90819  71.1%   210  155s
     28439 10571    2.69077   32   31    3.14352    0.93901  70.1%   208  160s
     29591 10843    2.16369   25   36    3.14352    0.97615  68.9%   206  165s
     30801 11139    3.07172   45   24    3.14352    1.00805  67.9%   205  170s
     31879 11422 infeasible   32         3.14352    1.02742  67.3%   205  175s
     33016 11746     cutoff   37         3.14352    1.04946  66.6%   204  180s
     34025 12091     cutoff   55         3.14352    1.05822  66.3%   204  185s
     35075 12335    2.73996   33   30    3.14352    1.07817  65.7%   203  190s
     36321 12649    1.15486   30   49    3.14352    1.09628  65.1%   202  195s
     37490 12956    3.02984   36   28    3.14352    1.11553  64.5%   201  200s
     38398 13182    2.97589   29   33    3.14352    1.12838  64.1%   201  205s
     39520 13453    2.42447   40   30    3.14352    1.14958  63.4%   201  210s
     40564 13753     cutoff   26         3.14352    1.16040  63.1%   200  215s
     41641 14006     cutoff   33         3.14352    1.17618  62.6%   200  220s
     42851 14254    1.98610   35   36    3.14352    1.19388  62.0%   199  225s
     44131 14589    2.86651   34   31    3.14352    1.21031  61.5%   198  230s
     45339 14840    2.12002   35   30    3.14352    1.22341  61.1%   197  235s
     46533 15141 infeasible   28         3.14352    1.23884  60.6%   196  240s
     47603 15447    2.93460   30   38    3.14352    1.25050  60.2%   196  245s
     48856 15734    2.56682   32   38    3.14352    1.26318  59.8%   195  250s
     49984 15983    1.61315   27   46    3.14352    1.27766  59.4%   195  255s
     51190 16261    2.47637   34   36    3.14352    1.29137  58.9%   194  260s
     52490 16559    1.71173   32   44    3.14352    1.30704  58.4%   193  265s
     53749 16820    2.89807   33   37    3.14352    1.32097  58.0%   192  270s
     55018 17065    2.15371   29   42    3.14352    1.33832  57.4%   191  275s
     56276 17299    1.67212   25   45    3.14352    1.35299  57.0%   191  280s
     57468 17541    2.48337   27   35    3.14352    1.36439  56.6%   190  285s
     58785 17775    2.76196   45   22    3.14352    1.37749  56.2%   189  290s
     59966 17999    2.63833   30   35    3.14352    1.39265  55.7%   189  295s
     61287 18244    2.17677   29   49    3.14352    1.40830  55.2%   188  300s
    
    Cutting planes:
      Gomory: 1
      Flow cover: 5
    
    Explored 61288 nodes (11609766 simplex iterations) in 300.00 seconds (307.04 work units)
    Thread count was 1 (of 96 available processors)
    
    Solution count 10: 3.14352 3.22266 3.33885 ... 7.08108
    
    Time limit reached
    Best objective 3.143517451392e+00, best bound 1.408296892861e+00, gap 55.2000%
    
    User-callback calls 61478, time in user-callback 0.00 sec

--- Reading solution for model GAMS_MODEL
***
*** Solver did not provide marginals for model GAMS_MODEL
***
--- Executing after solve: elapsed 0:05:00.087
--- model.gms(4877) 4 Mb
--- model.gms(7124) 6 Mb
--- Putfile results /local/scratch/a/sgusev/repos/k_means/data/gams_gurobi_gdp.hull_exact/no_mode/2026-02-15_05-27-39/original/results.dat
--- Putfile statresults /local/scratch/a/sgusev/repos/k_means/data/gams_gurobi_gdp.hull_exact/no_mode/2026-02-15_05-27-39/original/resultsstat.dat
*** Status: Normal completion
--- Job model.gms Stop 02/15/26 05:32:40 elapsed 0:05:00.091
Original problem solved. Time taken: 300.6807289123535 seconds
Original objective value: 3.143517451391722
